# Solution for model r5_t27_m5_5 Batch Number: 4
# Finished Task: 27 / 27
# Makespan: 863.0, Total Distance: 696.0, Total Time: 1.4342
# R O S F Batch
0 0 11 0.0 0.0 -1
1 1 16 0.0 0.0 -1
2 2 17 0.0 0.0 -1
3 3 9 0.0 0.0 -1
4 4 7 0.0 0.0 -1
5 3 31 503.0 542.0 2
6 0 26 551.0 583.0 0
7 4 8 35.0 64.0 0
8 4 28 161.0 193.0 0
9 3 12 177.0 215.0 0
10 4 27 425.0 462.0 0
11 0 18 363.0 385.0 0
12 3 24 300.0 332.0 0
13 2 23 713.0 744.0 3
14 3 21 396.0 425.0 0
15 2 13 576.0 606.0 1
16 1 -1 559.0 583.0 0
17 2 15 506.0 536.0 0
18 0 6 508.0 530.0 0
19 4 29 597.0 623.0 2
20 3 -1 683.0 713.0 3
21 3 5 466.0 489.0 2
22 4 -1 794.0 824.0 3
23 2 30 766.0 805.0 3
24 3 14 332.0 363.0 0
25 0 -1 713.0 734.0 3
26 0 25 600.0 625.0 2
27 4 19 553.0 583.0 0
28 4 10 373.0 395.0 0
29 4 22 662.0 700.0 2
30 2 -1 824.0 863.0 3
31 3 20 610.0 646.0 2
